src/asp/benchmarks/small7.lp
citta(citta_di_castello).
citta(amelia).
citta(umbertide).

richiesta(citta_di_castello, strade, 250).
richiesta(citta_di_castello, fiumi, 455).
richiesta(citta_di_castello, scuole, 1093).
richiesta(citta_di_castello, parchi, 23).
richiesta(citta_di_castello, energia, 600).

richiesta(amelia, strade, 710).
richiesta(amelia, fiumi, 541).
richiesta(amelia, scuole, 527).
richiesta(amelia, parchi, 235).
richiesta(amelia, energia, 782).

richiesta(umbertide, strade, 259).
richiesta(umbertide, fiumi, 988).
richiesta(umbertide, scuole, 1428).
richiesta(umbertide, parchi, 714).
richiesta(umbertide, energia, 1388).

