src/minizinc/benchmarks/small7.dzn
COMUNI = {
	san_giustino,
	perugia,
	spoleto,
};

NUMERO_COMUNI = 3;

ABITANTI_PER_COMUNE = [11, 161, 36];

STRADE_TRA_COMUNI = [|
	false, false, false |
	false, false, false |
	false, false, false |
|];

RICHIESTE = [|
	11, 38, 103, 10, 243 |
	7, 3, 199, 56, 142 |
	87, 18, 11, 12, 53 |
|];
